data/MCDM/NO_CORR/GEN_FROM_60/19_ITEMS_1000_GEN/K5019W20.KNP.mps
NAME          BLANK   
ROWS
 N  OBJROW
 L  R0000000
COLUMNS
    C0000000  OBJROW     -746.         R0000000  63.         
    C0000001  OBJROW     -865.         R0000000  340.        
    C0000002  OBJROW     -946.         R0000000  288.        
    C0000003  OBJROW     -184.         R0000000  342.        
    C0000004  OBJROW     -840.         R0000000  821.        
    C0000005  OBJROW     -649.         R0000000  28.         
    C0000006  OBJROW     -81.          R0000000  890.        
    C0000007  OBJROW     -145.         R0000000  743.        
    C0000008  OBJROW     -154.         R0000000  870.        
    C0000009  OBJROW     -255.         R0000000  323.        
    C0000010  OBJROW     -148.         R0000000  47.         
    C0000011  OBJROW     -79.          R0000000  532.        
    C0000012  OBJROW     -426.         R0000000  832.        
    C0000013  OBJROW     -352.         R0000000  515.        
    C0000014  OBJROW     -438.         R0000000  137.        
    C0000015  OBJROW     -641.         R0000000  119.        
    C0000016  OBJROW     -458.         R0000000  19.         
    C0000017  OBJROW     -275.         R0000000  399.        
    C0000018  OBJROW     -735.         R0000000  478.        
RHS
    RHS       R0000000  15098.      
BOUNDS
 BV BOUND     C0000000  1.          
 BV BOUND     C0000001  1.          
 BV BOUND     C0000002  1.          
 BV BOUND     C0000003  1.          
 BV BOUND     C0000004  1.          
 BV BOUND     C0000005  1.          
 BV BOUND     C0000006  1.          
 BV BOUND     C0000007  1.          
 BV BOUND     C0000008  1.          
 BV BOUND     C0000009  1.          
 BV BOUND     C0000010  1.          
 BV BOUND     C0000011  1.          
 BV BOUND     C0000012  1.          
 BV BOUND     C0000013  1.          
 BV BOUND     C0000014  1.          
 BV BOUND     C0000015  1.          
 BV BOUND     C0000016  1.          
 BV BOUND     C0000017  1.          
 BV BOUND     C0000018  1.          
ENDATA
