data/MCDM/NO_CORR/GEN_FROM_60/19_ITEMS_1000_GEN/K5019W20.KNP.txt
N 19
M 20
LC 19
LC 20
LC 21
LC 22
LC 23
LC 24
LC 25
LC 26
LC 27
LC 28
LC 29
LC 30
LC 31
LC 32
LC 33
LC 34
LC 35
LC 36
LC 37
LR 1
LR 2
LR 3
LR 4
LR 5
LR 6
LR 7
LR 8
LR 9
LR 10
LR 11
LR 12
LR 13
LR 14
LR 15
LR 16
LR 17
LR 18
LR 19
LR 20
LO -746
LO -865
LO -946
LO -184
LO -840
LO -649
LO -81
LO -145
LO -154
LO -255
LO -148
LO -79
LO -426
LO -352
LO -438
LO -641
LO -458
LO -275
LO -735
OS 1
IC 834
IC 313
IC 854
IC 991
IC 784
IC 843
IC 956
IC 419
IC 800
IC 731
IC 566
IC 860
IC 511
IC 98
IC 114
IC 424
IC 747
IC 473
IC 208
IB 5763
